************************************************************************
file with basedata            : md364_.bas
initial value random generator: 522796667
************************************************************************
projects                      :  1
jobs (incl. supersource/sink ):  22
horizon                       :  164
RESOURCES
  - renewable                 :  2   R
  - nonrenewable              :  2   N
  - doubly constrained        :  0   D
************************************************************************
PROJECT INFORMATION:
pronr.  #jobs rel.date duedate tardcost  MPM-Time
    1     20      0       29        0       29
************************************************************************
PRECEDENCE RELATIONS:
jobnr.    #modes  #successors   successors
   1        1          3           2   3   4
   2        3          1          18
   3        3          3           5   7   8
   4        3          3           5   6  10
   5        3          3           9  15  20
   6        3          2          13  17
   7        3          3           9  10  17
   8        3          3          10  11  14
   9        3          2          13  16
  10        3          1          18
  11        3          3          12  17  19
  12        3          2          16  20
  13        3          1          18
  14        3          2          15  21
  15        3          1          19
  16        3          1          21
  17        3          1          20
  18        3          2          19  21
  19        3          1          22
  20        3          1          22
  21        3          1          22
  22        1          0        
************************************************************************
REQUESTS/DURATIONS:
jobnr. mode duration  R 1  R 2  N 1  N 2
------------------------------------------------------------------------
  1      1     0       0    0    0    0
  2      1     4       4    0    2    2
         2     7       1    0    2    2
         3     9       0    5    1    2
  3      1     2       0    3    7    5
         2     2       9    0    8    5
         3     4       9    0    5    5
  4      1     1       0    2    8    8
         2     1       4    0    7    8
         3     6       0    2    4    6
  5      1     1       6    0    7    7
         2    10       0    6    6    7
         3    10       3    0    6    6
  6      1     1       6    0    8    6
         2     3       6    0    7    5
         3     7       6    0    5    4
  7      1     3       0    2    4    2
         2     8       9    0    4    2
         3    10       6    0    4    2
  8      1     4       0   10    9    2
         2     6       0    7    7    2
         3     8       2    0    7    2
  9      1     5       0    6    7    6
         2     8       4    0    7    3
         3    10       0    5    7    3
 10      1     1       9    0    6    4
         2     4       0    4    5    3
         3     8       9    0    5    3
 11      1     4      10    0    3   10
         2     4       0    7    3   10
         3     6      10    0    3    8
 12      1     1       0    8    9    5
         2     4       0    6    9    5
         3     7       0    3    8    4
 13      1     5       5    0    9    5
         2     5       0    7   10    5
         3     9       0    6    8    4
 14      1     3       8    0    6    3
         2     5       7    0    4    3
         3     8       6    0    2    3
 15      1     5       0    5    7   10
         2     6       0    3    5    9
         3     8       0    3    2    8
 16      1     4       0    4   10    7
         2     5       2    0    9    7
         3     7       0    2    9    7
 17      1     1       0    9    5    6
         2     8       0    5    5    3
         3    10       4    0    4    3
 18      1     7       9    0    7    6
         2     7       0    5    7    7
         3    10       9    0    2    5
 19      1     3       4    0    3    5
         2     6       3    0    3    5
         3     8       1    0    1    4
 20      1     5       7    0    9    6
         2     6       0    4    6    5
         3    10       6    0    5    5
 21      1     7       8    0    4    5
         2     7       0    8    4    5
         3     9       0    3    3    4
 22      1     0       0    0    0    0
************************************************************************
RESOURCEAVAILABILITIES:
  R 1  R 2  N 1  N 2
   31   23  112  100
************************************************************************
MAXIMAL LAGS:
from  to  type  delay
    1   22   ES      0
    1    2   ES      0
    2   22   ES      0
    1    3   ES      0
    3   22   ES      0
    1    4   ES      0
    4   22   ES      0
    1    5   ES      0
    5   22   ES      0
    1    6   ES      0
    6   22   ES      0
    1    7   ES      0
    7   22   ES      0
    1    8   ES      0
    8   22   ES      0
    1    9   ES      0
    9   22   ES      0
    1   10   ES      0
   10   22   ES      0
    1   11   ES      0
   11   22   ES      0
    1   12   ES      0
   12   22   ES      0
    1   13   ES      0
   13   22   ES      0
    1   14   ES      0
   14   22   ES      0
    1   15   ES      0
   15   22   ES      0
    1   16   ES      0
   16   22   ES      0
    1   17   ES      0
   17   22   ES      0
    1   18   ES      0
   18   22   ES      0
    1   19   ES      0
   19   22   ES      0
    1   20   ES      0
   20   22   ES      0
    1   21   ES      0
   21   22   ES      0
    1   22   ES      0
    2   18   SS     -5
    2   18   SE      9
    2   18   ES      2
    2   18   EE     -3
    3    5   SS     -6
    3    5   SE      6
    3    5   ES      9
    3    5   EE      1
    3    7   SS     -5
    3    7   SE      7
    3    7   ES      7
    3    7   EE     -4
    3    8   SS      7
    3    8   SE     -2
    3    8   ES      7
    3    8   EE     -3
    4    5   SS    -12
    4    5   SE     -6
    4    5   ES      5
    4    5   EE      6
    4    6   SS     -1
    4    6   SE     -2
    4    6   ES     11
    4    6   EE     -3
    4   10   SS      1
    4   10   SE     -1
    4   10   ES      1
    4   10   EE     12
    5    9   SS      9
    5    9   SE      8
    5    9   ES     -1
    5    9   EE     -6
    5   15   SS    -10
    5   15   SE      3
    5   15   ES    -11
    5   15   EE      4
    5   20   SS      3
    5   20   SE     -6
    5   20   ES    -11
    5   20   EE    -11
    6   13   SS     -8
    6   13   SE     11
    6   13   ES    -10
    6   13   EE    -12
    6   17   SS      9
    6   17   SE     -8
    6   17   ES     11
    6   17   EE      2
    7    9   SS     -6
    7    9   SE      0
    7    9   ES      9
    7    9   EE      0
    7   10   SS     -5
    7   10   SE      9
    7   10   ES     11
    7   10   EE     -7
    7   17   SS     -1
    7   17   SE     11
   17    7   SE      0
    7   17   ES      0
    7   17   EE      9
    8   10   SS      2
    8   10   SE     -6
    8   10   ES     11
    8   10   EE     10
    8   11   SS     -7
    8   11   SE     -7
    8   11   ES     11
    8   11   EE     -6
    8   14   SS     -3
    8   14   SE      4
    8   14   ES      2
    8   14   EE     -4
    9   13   SS      6
    9   13   SE     -6
    9   13   ES      7
    9   13   EE    -10
    9   16   SS      1
    9   16   SE      9
    9   16   ES      0
    9   16   EE    -12
   10   18   SS     -9
   10   18   SE      6
   10   18   ES     -9
   10   18   EE    -11
   11   12   SS      7
   11   12   SE    -12
   11   12   ES     -3
   11   12   EE      5
   11   17   SS      4
   11   17   SE      1
   11   17   ES      0
   11   17   EE     11
   11   19   SS     11
   11   19   SE    -12
   11   19   ES     11
   11   19   EE      2
   12   16   SS     -6
   12   16   SE     11
   12   16   ES     -8
   12   16   EE      1
   12   20   SS     -3
   12   20   SE     -3
   12   20   ES     12
   12   20   EE      2
   13   18   SS     12
   13   18   SE     12
   13   18   ES      5
   13   18   EE      6
   14   15   SS      8
   14   15   SE     10
   14   15   ES     -6
   14   15   EE      9
   14   21   SS      3
   14   21   SE      4
   14   21   ES     -1
   14   21   EE      7
   15   19   SS     -1
   15   19   SE      8
   15   19   ES     -4
   15   19   EE    -10
   16   21   SS      3
   16   21   SE      1
   16   21   ES    -11
   16   21   EE      7
   17   20   SS      9
   17   20   SE    -12
   17   20   ES      7
   17   20   EE     -6
   18   19   SS      3
   18   19   SE     -9
   18   19   ES      1
   18   19   EE     -3
   18   21   SS     12
   18   21   SE     10
   18   21   ES      9
   18   21   EE      9
************************************************************************
